words_hard_train/4236.qaiger
aag 135 16 0 1 119
2
4
8
10
24
32
50
58
76
84
154
162
196
204
234
236
270
6 2 4
12 9 11
14 7 13
16 9 2
18 17 5
20 18 10
22 14 21
26 7 25
28 6 24
30 27 29
34 13 32
36 12 33
38 35 37
40 31 39
42 30 38
44 41 43
46 22 44
48 47 43
52 29 51
54 28 50
56 53 55
60 37 58
62 36 59
64 61 63
66 57 65
68 56 64
70 67 69
72 49 70
74 73 69
78 55 77
80 54 76
82 79 81
86 63 84
88 62 85
90 87 89
92 83 91
94 82 90
96 93 95
98 74 97
100 75 96
102 99 101
104 3 25
106 104 5
108 106 51
110 103 109
112 111 77
114 23 45
116 115 47
118 16 4
120 19 10
122 119 121
124 123 24
126 116 125
128 122 25
130 127 129
132 130 107
134 48 71
136 135 73
138 136 51
140 132 139
142 137 50
144 141 143
146 103 76
148 144 147
150 113 149
152 101 95
156 81 155
158 80 154
160 157 159
164 89 162
166 88 163
168 165 167
170 161 169
172 160 168
174 171 173
176 152 175
178 153 174
180 177 179
182 180 155
184 150 183
186 181 154
188 185 187
190 108 77
192 190 155
194 179 173
198 159 197
200 158 196
202 199 201
206 167 204
208 166 205
210 207 209
212 203 211
214 202 210
216 213 215
218 194 217
220 195 216
222 219 221
224 193 223
226 225 197
228 189 227
230 223 196
232 229 231
238 234 237
240 235 236
242 239 241
244 242 209
246 243 208
248 245 247
250 249 201
252 248 200
254 251 253
256 221 215
258 255 256
260 254 257
262 259 261
264 262 236
266 233 265
268 263 237
270 267 269
i0 1 x1[0]
i1 1 x1[1]
i2 2 y1[0]
i3 2 y1[1]
i4 1 x1[2]
i5 2 y1[2]
i6 1 x1[3]
i7 2 y1[3]
i8 1 x1[4]
i9 2 y1[4]
i10 1 x1[5]
i11 2 y1[5]
i12 1 x1[6]
i13 2 y1[6]
i14 2 y1[7]
i15 1 x1[7]
o0 bv[0]
c
simplified
  <=
    1 x1
    subtract
      add
        1 x1
        abs
          1
      2 y1
