words_hard_train/4236.qaiger.qdimacs
p cnf 135 358
a 1 2 98 38 12 77 118 25 0
e 3 4 5 6 7 8 9 10 11 13 14 15 16 17 18 19 20 21 22 23 24 26 27 28 29 30 31 32 33 34 35 36 37 39 40 41 42 43 44 45 46 47 48 49 50 51 52 53 54 55 56 57 58 59 60 61 62 63 64 65 66 67 68 69 70 71 72 73 74 75 76 78 79 80 81 82 83 84 85 86 87 88 89 90 91 92 93 94 95 96 97 99 100 101 102 103 104 105 106 107 108 109 110 111 112 113 114 115 116 117 119 120 121 122 123 124 125 126 127 128 129 130 131 132 133 134 135 0
-1 -2 3 0
1 -3 0
2 -3 0
4 5 6 0
-4 -6 0
-5 -6 0
3 6 7 0
-3 -7 0
-6 -7 0
4 -1 8 0
-4 -8 0
1 -8 0
8 2 9 0
-8 -9 0
-2 -9 0
-9 -5 10 0
9 -10 0
5 -10 0
-7 10 11 0
7 -11 0
-10 -11 0
3 12 13 0
-3 -13 0
-12 -13 0
-3 -12 14 0
3 -14 0
12 -14 0
13 14 15 0
-13 -15 0
-14 -15 0
6 -16 17 0
-6 -17 0
16 -17 0
-6 16 18 0
6 -18 0
-16 -18 0
17 18 19 0
-17 -19 0
-18 -19 0
15 19 20 0
-15 -20 0
-19 -20 0
-15 -19 21 0
15 -21 0
19 -21 0
20 21 22 0
-20 -22 0
-21 -22 0
-11 -22 23 0
11 -23 0
22 -23 0
23 21 24 0
-23 -24 0
-21 -24 0
14 25 26 0
-14 -26 0
-25 -26 0
-14 -25 27 0
14 -27 0
25 -27 0
26 27 28 0
-26 -28 0
-27 -28 0
18 -29 30 0
-18 -30 0
29 -30 0
-18 29 31 0
18 -31 0
-29 -31 0
30 31 32 0
-30 -32 0
-31 -32 0
28 32 33 0
-28 -33 0
-32 -33 0
-28 -32 34 0
28 -34 0
32 -34 0
33 34 35 0
-33 -35 0
-34 -35 0
24 -35 36 0
-24 -36 0
35 -36 0
36 34 37 0
-36 -37 0
-34 -37 0
27 38 39 0
-27 -39 0
-38 -39 0
-27 -38 40 0
27 -40 0
38 -40 0
39 40 41 0
-39 -41 0
-40 -41 0
31 -42 43 0
-31 -43 0
42 -43 0
-31 42 44 0
31 -44 0
-42 -44 0
43 44 45 0
-43 -45 0
-44 -45 0
41 45 46 0
-41 -46 0
-45 -46 0
-41 -45 47 0
41 -47 0
45 -47 0
46 47 48 0
-46 -48 0
-47 -48 0
-37 48 49 0
37 -49 0
-48 -49 0
37 -48 50 0
-37 -50 0
48 -50 0
49 50 51 0
-49 -51 0
-50 -51 0
1 12 52 0
-1 -52 0
-12 -52 0
-52 2 53 0
52 -53 0
-2 -53 0
-53 25 54 0
53 -54 0
-25 -54 0
51 54 55 0
-51 -55 0
-54 -55 0
55 38 56 0
-55 -56 0
-38 -56 0
11 22 57 0
-11 -57 0
-22 -57 0
57 23 58 0
-57 -58 0
-23 -58 0
-8 -2 59 0
8 -59 0
2 -59 0
9 -5 60 0
-9 -60 0
5 -60 0
59 60 61 0
-59 -61 0
-60 -61 0
61 -12 62 0
-61 -62 0
12 -62 0
-58 62 63 0
58 -63 0
-62 -63 0
-61 12 64 0
61 -64 0
-12 -64 0
63 64 65 0
-63 -65 0
-64 -65 0
-65 53 66 0
65 -66 0
-53 -66 0
-24 35 67 0
24 -67 0
-35 -67 0
67 36 68 0
-67 -68 0
-36 -68 0
-68 25 69 0
68 -69 0
-25 -69 0
-66 69 70 0
66 -70 0
-69 -70 0
68 -25 71 0
-68 -71 0
25 -71 0
70 71 72 0
-70 -72 0
-71 -72 0
51 -38 73 0
-51 -73 0
38 -73 0
-72 73 74 0
72 -74 0
-73 -74 0
56 74 75 0
-56 -75 0
-74 -75 0
50 47 76 0
-50 -76 0
-47 -76 0
40 77 78 0
-40 -78 0
-77 -78 0
-40 -77 79 0
40 -79 0
77 -79 0
78 79 80 0
-78 -80 0
-79 -80 0
44 -81 82 0
-44 -82 0
81 -82 0
-44 81 83 0
44 -83 0
-81 -83 0
82 83 84 0
-82 -84 0
-83 -84 0
80 84 85 0
-80 -85 0
-84 -85 0
-80 -84 86 0
80 -86 0
84 -86 0
85 86 87 0
-85 -87 0
-86 -87 0
-76 87 88 0
76 -88 0
-87 -88 0
76 -87 89 0
-76 -89 0
87 -89 0
88 89 90 0
-88 -90 0
-89 -90 0
-90 77 91 0
90 -91 0
-77 -91 0
-75 91 92 0
75 -92 0
-91 -92 0
90 -77 93 0
-90 -93 0
77 -93 0
92 93 94 0
-92 -94 0
-93 -94 0
-54 38 95 0
54 -95 0
-38 -95 0
-95 77 96 0
95 -96 0
-77 -96 0
89 86 97 0
-89 -97 0
-86 -97 0
79 98 99 0
-79 -99 0
-98 -99 0
-79 -98 100 0
79 -100 0
98 -100 0
99 100 101 0
-99 -101 0
-100 -101 0
83 -102 103 0
-83 -103 0
102 -103 0
-83 102 104 0
83 -104 0
-102 -104 0
103 104 105 0
-103 -105 0
-104 -105 0
101 105 106 0
-101 -106 0
-105 -106 0
-101 -105 107 0
101 -107 0
105 -107 0
106 107 108 0
-106 -108 0
-107 -108 0
-97 108 109 0
97 -109 0
-108 -109 0
97 -108 110 0
-97 -110 0
108 -110 0
109 110 111 0
-109 -111 0
-110 -111 0
96 111 112 0
-96 -112 0
-111 -112 0
112 98 113 0
-112 -113 0
-98 -113 0
94 113 114 0
-94 -114 0
-113 -114 0
111 -98 115 0
-111 -115 0
98 -115 0
114 115 116 0
-114 -116 0
-115 -116 0
-117 118 119 0
117 -119 0
-118 -119 0
117 -118 120 0
-117 -120 0
118 -120 0
119 120 121 0
-119 -121 0
-120 -121 0
-121 104 122 0
121 -122 0
-104 -122 0
121 -104 123 0
-121 -123 0
104 -123 0
122 123 124 0
-122 -124 0
-123 -124 0
124 100 125 0
-124 -125 0
-100 -125 0
-124 -100 126 0
124 -126 0
100 -126 0
125 126 127 0
-125 -127 0
-126 -127 0
110 107 128 0
-110 -128 0
-107 -128 0
127 -128 129 0
-127 -129 0
128 -129 0
-127 128 130 0
127 -130 0
-128 -130 0
129 130 131 0
-129 -131 0
-130 -131 0
-131 -118 132 0
131 -132 0
118 -132 0
116 132 133 0
-116 -133 0
-132 -133 0
131 118 134 0
-131 -134 0
-118 -134 0
133 134 135 0
-133 -135 0
-134 -135 0
135 0
